% demand
num_movements = 38;
loading_factor = [1050, 1100, 1200, 2000, 1000, 1450, 1950, 1250, 1850, 1650, 1300, 1350, 1950, 2000, 900, 1750, 1200, 1450, 1300, 900, 1550, 1750, 1900, 800, 900, 1600, 1200, 1800, 2000, 1000, 1700, 1150, 950, 800, 1700, 1500, 1100, 1250];
pickup_time = [0, 0, 0, 0, 0, 0, 0, 0, 2, 2, 2, 2, 2, 2, 2, 5, 5, 5, 5, 6, 6, 6, 6, 6, 8, 8, 9, 9, 9, 9, 9, 9, 9, 10, 10, 11, 11, 13];
delivery_time = [1, 2, 1, 2, 1, 2, 1, 2, 4, 4, 4, 4, 4, 4, 4, 6, 14, 6, 6, 7, 9, 8, 9, 9, 9, 9, 10, 10, 10, 12, 14, 10, 14, 12, 11, 14, 14, 14];

% transporter definition
total_capacity = 11000;
num_decks = 4;
capacity = [3000, 3000, 1000, 4000];

% ways out of decks
num_ways_out = 2;
paths_out = array3d(decks, ways_out, decks, [
% ways out of deck d1
2, 4, 0, 0, 3, 4, 0, 0, 

% ways out of deck d2
4, 0, 0, 0, 0, 0, 0, 0,	

% ways out of deck d3
4, 0, 0, 0, 0, 0, 0, 0,	

% ways out of deck d4
0, 0, 0, 0,	0, 0, 0, 0,	

]);

